# Objective value = 1.0265249999999853e+04
I_0_0 1088
I_0_1 1.1999999999999966e+03
I_0_2 1.3359999999999986e+03
I_0_3 1.4569999999999804e+03
I_0_4 1.3790000000000234e+03
I_0_5 1.2429999999999675e+03
I_0_6 1.6799999999999675e+03
I_1_0 150
I_1_1 150
I_1_2 75
I_1_3 0
I_1_4 150
I_1_5 7.5000000000009734e+01
I_1_6 9.71134284100117e-12
I_2_0 88
I_2_1 88
I_2_2 4.3999999999994564e+01
I_2_3 -5.3486104434341541e-12
I_2_4 8.7999999999999972e+01
I_2_5 4.4000000000013316e+01
I_2_6 1.3315570868144277e-11
I_3_0 11
I_3_1 6.1062266354383610e-16
I_3_2 1.0999999999998014e+01
I_3_3 1.0999999999999998e+01
I_3_4 1.0999999999995859e+01
I_3_5 1.0999999999999998e+01
I_3_6 0
I_4_0 20
I_4_1 20
I_4_2 10
I_4_3 1.3322676295501878e-15
I_4_4 2.0000000000002579e+01
I_4_5 9.99999999999871
I_4_6 -1.2889689315898067e-12
I_5_0 42
I_5_1 0
I_5_2 42
I_5_3 4.2000000000000725e+01
I_5_4 0
I_5_5 42
I_5_6 0
I_6_0 39
I_6_1 3.9000000000000981e+01
I_6_2 9.80220680540504e-13
I_6_3 3.9000000000000981e+01
I_6_4 3.8999999999989150e+01
I_6_5 39
I_6_6 0
I_7_0 118
I_7_1 59
I_7_2 118
I_7_3 5.9000000000001016e+01
I_7_4 -2.0303758674344863e-12
I_7_5 118.000000000001
I_7_6 59.000000000001
I_8_0 77
I_8_1 77
I_8_2 77
I_8_3 7.7000000000011227e+01
I_8_4 5.9614535530272406e-12
I_8_5 77
I_8_6 0
I_9_0 54
I_9_1 5.4000000000001357e+01
I_9_2 -8.2592892957475009e-12
I_9_3 5.4000000000003112e+01
I_9_4 -1.7763568394002505e-15
I_9_5 5.4000000000000540e+01
I_9_6 0
I_10_0 52
I_10_1 5.2000000000001044e+01
I_10_2 2.6000000000007191e+01
I_10_3 -1.3979928326079971e-12
I_10_4 5.1999999999984134e+01
I_10_5 2.6000000000007930e+01
I_10_6 7.9327655555516685e-12
q_1_0_0 75
q_1_0_1 0
q_1_0_2 0
q_1_0_3 225
q_1_0_4 9.6935792726071668e-12
q_1_0_5 0
q_1_1_0 0
q_1_1_1 0
q_1_1_2 0
q_1_1_3 0
q_1_1_4 0
q_1_1_5 0
q_2_0_0 44
q_2_0_1 3.5527136788005009e-15
q_2_0_2 8.4934705277666217e-14
q_2_0_3 -4.5474735088757918e-13
q_2_0_4 -3.7339020764193265e-12
q_2_0_5 0
q_2_1_0 0
q_2_1_1 3.4727776210274884e-12
q_2_1_2 0
q_2_1_3 1.3200000000000662e+02
q_2_1_4 1.7092105508709210e-11
q_2_1_5 0
q_3_0_0 6.1062266354383610e-16
q_3_0_1 2.1999999999998014e+01
q_3_0_2 1.1000000000001986e+01
q_3_0_3 0
q_3_0_4 1.1000000000004132e+01
q_3_0_5 0
q_3_1_0 0
q_3_1_1 0
q_3_1_2 0
q_3_1_3 1.0999999999995859e+01
q_3_1_4 1.3322676295501878e-15
q_3_1_5 1.7763568394002505e-15
q_4_0_0 1.0000000000000002e+01
q_4_0_1 0
q_4_0_2 0
q_4_0_3 2.5721647034515627e-12
q_4_0_4 -3.8671288393743453e-12
q_4_0_5 0
q_4_1_0 0
q_4_1_1 0
q_4_1_2 2.6645352591003757e-15
q_4_1_3 3.0000000000000007e+01
q_4_1_4 0
q_4_1_5 0
q_5_0_0 0
q_5_0_1 84
q_5_0_2 4.2000000000000725e+01
q_5_0_3 0
q_5_0_4 0
q_5_0_5 0
q_5_1_0 0
q_5_1_1 0
q_5_1_2 0
q_5_1_3 -1.4210854715202004e-14
q_5_1_4 84
q_5_1_5 0
q_6_0_0 39
q_6_0_1 0
q_6_0_2 78
q_6_0_3 0
q_6_0_4 3.9000000000026510e+01
q_6_0_5 0
q_6_1_0 9.80220680540504e-13
q_6_1_1 0
q_6_1_2 0
q_6_1_3 3.8999999999988113e+01
q_6_1_4 -1.5650450319745949e-11
q_6_1_5 0
q_7_0_0 0
q_7_0_1 118
q_7_0_2 0
q_7_0_3 0
q_7_0_4 0
q_7_0_5 -1.7763568394002505e-15
q_7_1_0 0
q_7_1_1 0
q_7_1_2 7.1054273576010019e-15
q_7_1_3 -3.0535574069290305e-12
q_7_1_4 1.7700000000000304e+02
q_7_1_5 0
q_8_0_0 77
q_8_0_1 77
q_8_0_2 7.7000000000011227e+01
q_8_0_3 -5.2420290330701391e-12
q_8_0_4 1.5399999999999403e+02
q_8_0_5 1.7763568394002505e-15
q_8_1_0 0
q_8_1_1 0
q_8_1_2 0
q_8_1_3 0
q_8_1_4 0
q_8_1_5 -1.7763568394002505e-15
q_9_0_0 54
q_9_0_1 0
q_9_0_2 1.0800000000001137e+02
q_9_0_3 -3.1139535394686391e-12
q_9_0_4 1.0800000000000051e+02
q_9_0_5 0
q_9_1_0 1.3572286345945439e-12
q_9_1_1 -9.6165179303420442e-12
q_9_1_2 0
q_9_1_3 0
q_9_1_4 0
q_9_1_5 0
q_10_0_0 2.6000000000001044e+01
q_10_0_1 1.7763568394002505e-15
q_10_0_2 -1.6948220604717790e-11
q_10_0_3 0
q_10_0_4 0
q_10_0_5 0
q_10_1_0 0
q_10_1_1 6.1437403093145561e-12
q_10_1_2 0
q_10_1_3 7.7999999999976211e+01
q_10_1_4 2.3796076220605755e-11
q_10_1_5 0
y_0_0_0 1
y_0_0_1 1
y_0_0_2 1
y_0_0_3 1
y_0_0_4 1
y_0_0_5 0
y_0_1_0 2.5133863603602666e-14
y_0_1_1 0
y_0_1_2 2.8615998459713410e-14
y_0_1_3 1
y_0_1_4 1
y_0_1_5 0
y_1_0_0 1
y_1_0_1 0
y_1_0_2 0
y_1_0_3 1
y_1_0_4 1.2942424909567762e-13
y_1_0_5 0
y_1_1_0 0
y_1_1_1 0
y_1_1_2 0
y_1_1_3 0
y_1_1_4 0
y_1_1_5 0
y_2_0_0 1
y_2_0_1 5.5511151231257827e-17
y_2_0_2 6.4344473695201678e-16
y_2_0_3 -5.5511151231257827e-17
y_2_0_4 0
y_2_0_5 0
y_2_1_0 0
y_2_1_1 0
y_2_1_2 2.8615998459713410e-14
y_2_1_3 1.0000000000000715e+00
y_2_1_4 1.2942424909567762e-13
y_2_1_5 0
y_3_0_0 5.5511151231257827e-17
y_3_0_1 9.9999999999990974e-01
y_3_0_2 1
y_3_0_3 0
y_3_0_4 9.9999999999999933e-01
y_3_0_5 0
y_3_1_0 0
y_3_1_1 0
y_3_1_2 0
y_3_1_3 9.9999999999962363e-01
y_3_1_4 0
y_3_1_5 0
y_4_0_0 1.0000000000000002e+00
y_4_0_1 0
y_4_0_2 0
y_4_0_3 0
y_4_0_4 -1.2889689315898067e-13
y_4_0_5 0
y_4_1_0 0
y_4_1_1 0
y_4_1_2 5.5511151231257827e-17
y_4_1_3 1
y_4_1_4 0
y_4_1_5 0
y_5_0_0 0
y_5_0_1 1
y_5_0_2 1.0000000000000173e+00
y_5_0_3 0
y_5_0_4 0
y_5_0_5 0
y_5_1_0 0
y_5_1_1 0
y_5_1_2 0
y_5_1_3 -2.2204460492503131e-16
y_5_1_4 1
y_5_1_5 0
y_6_0_0 1
y_6_0_1 0
y_6_0_2 1
y_6_0_3 0
y_6_0_4 1.0000000000002007e+00
y_6_0_5 0
y_6_1_0 2.5133863603602666e-14
y_6_1_1 0
y_6_1_2 0
y_6_1_3 0.999999999999698
y_6_1_4 -2.0064679897110190e-13
y_6_1_5 0
y_7_0_0 0
y_7_0_1 1
y_7_0_2 0
y_7_0_3 0
y_7_0_4 0
y_7_0_5 0
y_7_1_0 0
y_7_1_1 0
y_7_1_2 0
y_7_1_3 -1.7319479184152442e-14
y_7_1_4 1.0000000000000173e+00
y_7_1_5 0
y_8_0_0 1
y_8_0_1 1
y_8_0_2 1.0000000000000773e+00
y_8_0_3 0
y_8_0_4 1
y_8_0_5 0
y_8_1_0 0
y_8_1_1 0
y_8_1_2 0
y_8_1_3 0
y_8_1_4 -7.7258320049684167e-14
y_8_1_5 0
y_9_0_0 1
y_9_0_1 0
y_9_0_2 1
y_9_0_3 0
y_9_0_4 1
y_9_0_5 0
y_9_1_0 2.5133863603602666e-14
y_9_1_1 -2.1042996405203016e-13
y_9_1_2 0
y_9_1_3 0
y_9_1_4 0
y_9_1_5 0
y_10_0_0 1.0000000000000402e+00
y_10_0_1 2.7755575615628914e-17
y_10_0_2 -2.1727064591914313e-13
y_10_0_3 0
y_10_0_4 0
y_10_0_5 0
y_10_1_0 0
y_10_1_1 1.18148852102203e-13
y_10_1_2 0
y_10_1_3 9.9999999999969491e-01
y_10_1_4 3.0506153159137739e-13
y_10_1_5 0
x_0_1_0_0 0.999999999999907
x_0_1_0_1 0
x_0_1_0_2 0
x_0_1_0_3 2
x_0_1_0_4 4.2493786267527867e-13
x_0_1_0_5 0
x_0_1_1_0 0
x_0_1_1_1 0
x_0_1_1_2 0
x_0_1_1_3 0
x_0_1_1_4 0
x_0_1_1_5 0
x_0_2_0_0 1
x_0_2_0_1 -5.5511151231257827e-17
x_0_2_0_2 0
x_0_2_0_3 -5.5511151231257827e-17
x_0_2_0_4 0
x_0_2_0_5 0
x_0_2_1_0 0
x_0_2_1_1 0
x_0_2_1_2 5.5511151231257827e-17
x_0_2_1_3 1.0000000000001426e+00
x_0_2_1_4 2.5890400934258651e-13
x_0_2_1_5 0
x_0_3_0_0 0
x_0_3_0_1 9.9999999999990952e-01
x_0_3_0_2 9.9999999999991429e-01
x_0_3_0_3 0
x_0_3_0_4 9.9999999999970479e-01
x_0_3_0_5 0
x_0_3_1_0 0
x_0_3_1_1 0
x_0_3_1_2 0
x_0_3_1_3 0.999999999999552
x_0_3_1_4 0
x_0_3_1_5 0
x_0_4_0_0 -8.3266726846886741e-17
x_0_4_0_1 0
x_0_4_0_2 0
x_0_4_0_3 -1.1102230246251565e-16
x_0_4_0_4 0
x_0_4_0_5 0
x_0_4_1_0 0
x_0_4_1_1 0
x_0_4_1_2 5.5511151231257827e-17
x_0_4_1_3 3.0531133177191805e-13
x_0_4_1_4 0
x_0_4_1_5 0
x_0_5_0_0 0
x_0_5_0_1 0
x_0_5_0_2 1.0000000000000173e+00
x_0_5_0_3 0
x_0_5_0_4 0
x_0_5_0_5 0
x_0_5_1_0 0
x_0_5_1_1 0
x_0_5_1_2 0
x_0_5_1_3 0
x_0_5_1_4 9.9999999999960021e-01
x_0_5_1_5 0
x_0_6_0_0 0
x_0_6_0_1 0
x_0_6_0_2 -8.8817841970012523e-16
x_0_6_0_3 0
x_0_6_0_4 -1.2997936060799020e-13
x_0_6_0_5 0
x_0_6_1_0 0
x_0_6_1_1 0
x_0_6_1_2 0
x_0_6_1_3 0
x_0_6_1_4 0
x_0_6_1_5 0
x_0_7_0_0 0
x_0_7_0_1 1
x_0_7_0_2 0
x_0_7_0_3 0
x_0_7_0_4 0
x_0_7_0_5 0
x_0_7_1_0 0
x_0_7_1_1 0
x_0_7_1_2 0
x_0_7_1_3 -2.2204460492503131e-16
x_0_7_1_4 1.0000000000001408e+00
x_0_7_1_5 0
x_0_8_0_0 -3.2801539262550250e-13
x_0_8_0_1 0
x_0_8_0_2 1.4654943925052066e-13
x_0_8_0_3 0
x_0_8_0_4 1
x_0_8_0_5 0
x_0_8_1_0 0
x_0_8_1_1 0
x_0_8_1_2 0
x_0_8_1_3 0
x_0_8_1_4 0
x_0_8_1_5 0
x_0_9_0_0 0
x_0_9_0_1 0
x_0_9_0_2 0
x_0_9_0_3 0
x_0_9_0_4 1.3877787807814457e-16
x_0_9_0_5 0
x_0_9_1_0 0
x_0_9_1_1 0
x_0_9_1_2 0
x_0_9_1_3 1.1102230246251565e-16
x_0_9_1_4 0
x_0_9_1_5 0
x_0_10_0_0 0
x_0_10_0_1 0
x_0_10_0_2 0
x_0_10_0_3 0
x_0_10_0_4 0
x_0_10_0_5 0
x_0_10_1_0 0
x_0_10_1_1 0
x_0_10_1_2 0
x_0_10_1_3 0
x_0_10_1_4 0
x_0_10_1_5 0
x_1_2_0_0 0
x_1_2_0_1 0
x_1_2_0_2 0
x_1_2_0_3 0
x_1_2_0_4 0
x_1_2_0_5 0
x_1_2_1_0 0
x_1_2_1_1 0
x_1_2_1_2 0
x_1_2_1_3 0
x_1_2_1_4 0
x_1_2_1_5 0
x_1_3_0_0 -1.6653345369377348e-16
x_1_3_0_1 0
x_1_3_0_2 0
x_1_3_0_3 0
x_1_3_0_4 -1.6608936448392342e-13
x_1_3_0_5 0
x_1_3_1_0 0
x_1_3_1_1 0
x_1_3_1_2 0
x_1_3_1_3 0
x_1_3_1_4 0
x_1_3_1_5 0
x_1_4_0_0 0
x_1_4_0_1 0
x_1_4_0_2 0
x_1_4_0_3 0
x_1_4_0_4 0
x_1_4_0_5 0
x_1_4_1_0 0
x_1_4_1_1 0
x_1_4_1_2 0
x_1_4_1_3 0
x_1_4_1_4 0
x_1_4_1_5 0
x_1_5_0_0 0
x_1_5_0_1 0
x_1_5_0_2 0
x_1_5_0_3 0
x_1_5_0_4 0
x_1_5_0_5 0
x_1_5_1_0 0
x_1_5_1_1 0
x_1_5_1_2 0
x_1_5_1_3 0
x_1_5_1_4 0
x_1_5_1_5 0
x_1_6_0_0 0
x_1_6_0_1 0
x_1_6_0_2 0
x_1_6_0_3 0
x_1_6_0_4 0
x_1_6_0_5 0
x_1_6_1_0 0
x_1_6_1_1 0
x_1_6_1_2 0
x_1_6_1_3 0
x_1_6_1_4 0
x_1_6_1_5 0
x_1_7_0_0 0
x_1_7_0_1 0
x_1_7_0_2 0
x_1_7_0_3 0
x_1_7_0_4 0
x_1_7_0_5 0
x_1_7_1_0 0
x_1_7_1_1 0
x_1_7_1_2 0
x_1_7_1_3 0
x_1_7_1_4 0
x_1_7_1_5 0
x_1_8_0_0 1.0000000000000933e+00
x_1_8_0_1 0
x_1_8_0_2 0
x_1_8_0_3 0
x_1_8_0_4 0
x_1_8_0_5 0
x_1_8_1_0 0
x_1_8_1_1 0
x_1_8_1_2 0
x_1_8_1_3 0
x_1_8_1_4 0
x_1_8_1_5 0
x_1_9_0_0 0
x_1_9_0_1 0
x_1_9_0_2 0
x_1_9_0_3 0
x_1_9_0_4 0
x_1_9_0_5 0
x_1_9_1_0 0
x_1_9_1_1 0
x_1_9_1_2 0
x_1_9_1_3 0
x_1_9_1_4 0
x_1_9_1_5 0
x_1_10_0_0 0
x_1_10_0_1 0
x_1_10_0_2 0
x_1_10_0_3 0
x_1_10_0_4 0
x_1_10_0_5 0
x_1_10_1_0 0
x_1_10_1_1 0
x_1_10_1_2 0
x_1_10_1_3 0
x_1_10_1_4 0
x_1_10_1_5 0
x_2_3_0_0 0
x_2_3_0_1 0
x_2_3_0_2 0
x_2_3_0_3 0
x_2_3_0_4 0
x_2_3_0_5 0
x_2_3_1_0 0
x_2_3_1_1 0
x_2_3_1_2 0
x_2_3_1_3 0
x_2_3_1_4 0
x_2_3_1_5 0
x_2_4_0_0 1
x_2_4_0_1 0
x_2_4_0_2 0
x_2_4_0_3 -5.5511151231257827e-17
x_2_4_0_4 0
x_2_4_0_5 0
x_2_4_1_0 0
x_2_4_1_1 0
x_2_4_1_2 5.5511151231257827e-17
x_2_4_1_3 1
x_2_4_1_4 -2.7755575615628914e-17
x_2_4_1_5 0
x_2_5_0_0 0
x_2_5_0_1 0
x_2_5_0_2 0
x_2_5_0_3 0
x_2_5_0_4 0
x_2_5_0_5 0
x_2_5_1_0 0
x_2_5_1_1 0
x_2_5_1_2 0
x_2_5_1_3 0
x_2_5_1_4 0
x_2_5_1_5 0
x_2_6_0_0 0
x_2_6_0_1 0
x_2_6_0_2 0
x_2_6_0_3 0
x_2_6_0_4 0
x_2_6_0_5 0
x_2_6_1_0 0
x_2_6_1_1 0
x_2_6_1_2 0
x_2_6_1_3 0
x_2_6_1_4 0
x_2_6_1_5 0
x_2_7_0_0 0
x_2_7_0_1 0
x_2_7_0_2 0
x_2_7_0_3 0
x_2_7_0_4 0
x_2_7_0_5 0
x_2_7_1_0 0
x_2_7_1_1 0
x_2_7_1_2 0
x_2_7_1_3 0
x_2_7_1_4 0
x_2_7_1_5 0
x_2_8_0_0 0
x_2_8_0_1 0
x_2_8_0_2 0
x_2_8_0_3 0
x_2_8_0_4 0
x_2_8_0_5 0
x_2_8_1_0 0
x_2_8_1_1 0
x_2_8_1_2 0
x_2_8_1_3 0
x_2_8_1_4 0
x_2_8_1_5 0
x_2_9_0_0 0
x_2_9_0_1 0
x_2_9_0_2 0
x_2_9_0_3 0
x_2_9_0_4 0
x_2_9_0_5 0
x_2_9_1_0 0
x_2_9_1_1 0
x_2_9_1_2 0
x_2_9_1_3 0
x_2_9_1_4 0
x_2_9_1_5 0
x_2_10_0_0 0
x_2_10_0_1 0
x_2_10_0_2 0
x_2_10_0_3 0
x_2_10_0_4 0
x_2_10_0_5 0
x_2_10_1_0 0
x_2_10_1_1 0
x_2_10_1_2 0
x_2_10_1_3 0
x_2_10_1_4 0
x_2_10_1_5 0
x_3_4_0_0 0
x_3_4_0_1 0
x_3_4_0_2 0
x_3_4_0_3 0
x_3_4_0_4 0
x_3_4_0_5 0
x_3_4_1_0 0
x_3_4_1_1 0
x_3_4_1_2 0
x_3_4_1_3 0
x_3_4_1_4 0
x_3_4_1_5 0
x_3_5_0_0 0
x_3_5_0_1 0
x_3_5_0_2 0
x_3_5_0_3 0
x_3_5_0_4 0
x_3_5_0_5 0
x_3_5_1_0 0
x_3_5_1_1 0
x_3_5_1_2 0
x_3_5_1_3 0
x_3_5_1_4 0
x_3_5_1_5 0
x_3_6_0_0 1.6653345369377348e-16
x_3_6_0_1 0
x_3_6_0_2 1.0000000000000964e+00
x_3_6_0_3 0
x_3_6_0_4 1.0000000000004599e+00
x_3_6_0_5 0
x_3_6_1_0 0
x_3_6_1_1 0
x_3_6_1_2 0
x_3_6_1_3 9.9999999999969524e-01
x_3_6_1_4 0
x_3_6_1_5 0
x_3_7_0_0 0
x_3_7_0_1 0
x_3_7_0_2 0
x_3_7_0_3 0
x_3_7_0_4 0
x_3_7_0_5 0
x_3_7_1_0 0
x_3_7_1_1 0
x_3_7_1_2 0
x_3_7_1_3 0
x_3_7_1_4 0
x_3_7_1_5 0
x_3_8_0_0 -5.5511151231257827e-17
x_3_8_0_1 9.9999999999990974e-01
x_3_8_0_2 0
x_3_8_0_3 0
x_3_8_0_4 0
x_3_8_0_5 0
x_3_8_1_0 0
x_3_8_1_1 0
x_3_8_1_2 0
x_3_8_1_3 0
x_3_8_1_4 0
x_3_8_1_5 0
x_3_9_0_0 0
x_3_9_0_1 0
x_3_9_0_2 0
x_3_9_0_3 0
x_3_9_0_4 0
x_3_9_0_5 0
x_3_9_1_0 0
x_3_9_1_1 0
x_3_9_1_2 0
x_3_9_1_3 0
x_3_9_1_4 0
x_3_9_1_5 0
x_3_10_0_0 0
x_3_10_0_1 0
x_3_10_0_2 0
x_3_10_0_3 0
x_3_10_0_4 0
x_3_10_0_5 0
x_3_10_1_0 0
x_3_10_1_1 0
x_3_10_1_2 0
x_3_10_1_3 0
x_3_10_1_4 0
x_3_10_1_5 0
x_4_5_0_0 0
x_4_5_0_1 0
x_4_5_0_2 0
x_4_5_0_3 0
x_4_5_0_4 0
x_4_5_0_5 0
x_4_5_1_0 0
x_4_5_1_1 0
x_4_5_1_2 0
x_4_5_1_3 0
x_4_5_1_4 0
x_4_5_1_5 0
x_4_6_0_0 -1.6653345369377348e-16
x_4_6_0_1 0
x_4_6_0_2 0
x_4_6_0_3 5.5511151231257827e-17
x_4_6_0_4 -1.2889689315898067e-13
x_4_6_0_5 0
x_4_6_1_0 0
x_4_6_1_1 0
x_4_6_1_2 0
x_4_6_1_3 0
x_4_6_1_4 2.3370194668359545e-13
x_4_6_1_5 0
x_4_7_0_0 0
x_4_7_0_1 0
x_4_7_0_2 0
x_4_7_0_3 0
x_4_7_0_4 0
x_4_7_0_5 0
x_4_7_1_0 0
x_4_7_1_1 0
x_4_7_1_2 0
x_4_7_1_3 0
x_4_7_1_4 0
x_4_7_1_5 0
x_4_8_0_0 0
x_4_8_0_1 0
x_4_8_0_2 0
x_4_8_0_3 0
x_4_8_0_4 0
x_4_8_0_5 0
x_4_8_1_0 0
x_4_8_1_1 0
x_4_8_1_2 0
x_4_8_1_3 0
x_4_8_1_4 0
x_4_8_1_5 0
x_4_9_0_0 0
x_4_9_0_1 0
x_4_9_0_2 0
x_4_9_0_3 0
x_4_9_0_4 -1.2889689315898067e-13
x_4_9_0_5 0
x_4_9_1_0 0
x_4_9_1_1 0
x_4_9_1_2 0
x_4_9_1_3 0
x_4_9_1_4 0
x_4_9_1_5 0
x_4_10_0_0 0.999999999999862
x_4_10_0_1 0
x_4_10_0_2 0
x_4_10_0_3 0
x_4_10_0_4 0
x_4_10_0_5 0
x_4_10_1_0 0
x_4_10_1_1 0
x_4_10_1_2 0
x_4_10_1_3 9.9999999999969491e-01
x_4_10_1_4 2.7200464103316335e-13
x_4_10_1_5 0
x_5_6_0_0 0
x_5_6_0_1 0
x_5_6_0_2 0
x_5_6_0_3 0
x_5_6_0_4 0
x_5_6_0_5 0
x_5_6_1_0 0
x_5_6_1_1 0
x_5_6_1_2 0
x_5_6_1_3 0
x_5_6_1_4 -2.7988722450800196e-13
x_5_6_1_5 0
x_5_7_0_0 0
x_5_7_0_1 1
x_5_7_0_2 0
x_5_7_0_3 0
x_5_7_0_4 0
x_5_7_0_5 0
x_5_7_1_0 0
x_5_7_1_1 0
x_5_7_1_2 0
x_5_7_1_3 -2.2204460492503131e-16
x_5_7_1_4 1.0000000000000173e+00
x_5_7_1_5 0
x_5_8_0_0 0
x_5_8_0_1 9.9999999999999978e-01
x_5_8_0_2 1.0000000000000173e+00
x_5_8_0_3 0
x_5_8_0_4 0
x_5_8_0_5 0
x_5_8_1_0 0
x_5_8_1_1 0
x_5_8_1_2 0
x_5_8_1_3 0
x_5_8_1_4 0
x_5_8_1_5 0
x_5_9_0_0 0
x_5_9_0_1 0
x_5_9_0_2 0
x_5_9_0_3 0
x_5_9_0_4 0
x_5_9_0_5 0
x_5_9_1_0 0
x_5_9_1_1 0
x_5_9_1_2 0
x_5_9_1_3 -2.2204460492503131e-16
x_5_9_1_4 0
x_5_9_1_5 0
x_5_10_0_0 0
x_5_10_0_1 0
x_5_10_0_2 0
x_5_10_0_3 0
x_5_10_0_4 0
x_5_10_0_5 0
x_5_10_1_0 0
x_5_10_1_1 0
x_5_10_1_2 0
x_5_10_1_3 0
x_5_10_1_4 6.6213701188644336e-13
x_5_10_1_5 0
x_6_7_0_0 0
x_6_7_0_1 0
x_6_7_0_2 0
x_6_7_0_3 0
x_6_7_0_4 0
x_6_7_0_5 0
x_6_7_1_0 0
x_6_7_1_1 0
x_6_7_1_2 0
x_6_7_1_3 0
x_6_7_1_4 0
x_6_7_1_5 0
x_6_8_0_0 0
x_6_8_0_1 0
x_6_8_0_2 0
x_6_8_0_3 0
x_6_8_0_4 0
x_6_8_0_5 0
x_6_8_1_0 0
x_6_8_1_1 0
x_6_8_1_2 0
x_6_8_1_3 0
x_6_8_1_4 -1.5451664009936833e-13
x_6_8_1_5 0
x_6_9_0_0 1
x_6_9_0_1 0
x_6_9_0_2 1.0000000000001212e+00
x_6_9_0_3 0
x_6_9_0_4 1.0000000000002007e+00
x_6_9_0_5 0
x_6_9_1_0 0
x_6_9_1_1 -4.4599379170766297e-13
x_6_9_1_2 0
x_6_9_1_3 0
x_6_9_1_4 0
x_6_9_1_5 0
x_6_10_0_0 1
x_6_10_0_1 0
x_6_10_0_2 -2.1727064591914313e-13
x_6_10_0_3 0
x_6_10_0_4 0
x_6_10_0_5 0
x_6_10_1_0 0
x_6_10_1_1 0
x_6_10_1_2 0
x_6_10_1_3 9.9999999999969524e-01
x_6_10_1_4 -2.0064679897110188e-13
x_6_10_1_5 0
x_7_8_0_0 0
x_7_8_0_1 0
x_7_8_0_2 0
x_7_8_0_3 0
x_7_8_0_4 0
x_7_8_0_5 0
x_7_8_1_0 0
x_7_8_1_1 0
x_7_8_1_2 0
x_7_8_1_3 0
x_7_8_1_4 0
x_7_8_1_5 0
x_7_9_0_0 0
x_7_9_0_1 0
x_7_9_0_2 0
x_7_9_0_3 0
x_7_9_0_4 0
x_7_9_0_5 0
x_7_9_1_0 0
x_7_9_1_1 0
x_7_9_1_2 0
x_7_9_1_3 0
x_7_9_1_4 0
x_7_9_1_5 0
x_7_10_0_0 0
x_7_10_0_1 0
x_7_10_0_2 0
x_7_10_0_3 0
x_7_10_0_4 0
x_7_10_0_5 0
x_7_10_1_0 0
x_7_10_1_1 0
x_7_10_1_2 0
x_7_10_1_3 0
x_7_10_1_4 -1.2338847892141774e-13
x_7_10_1_5 0
x_8_9_0_0 1.0000000000002349e+00
x_8_9_0_1 0
x_8_9_0_2 9.9999999999999045e-01
x_8_9_0_3 0
x_8_9_0_4 1
x_8_9_0_5 0
x_8_9_1_0 0
x_8_9_1_1 0
x_8_9_1_2 0
x_8_9_1_3 0
x_8_9_1_4 0
x_8_9_1_5 0
x_8_10_0_0 0
x_8_10_0_1 5.5511151231257827e-17
x_8_10_0_2 0
x_8_10_0_3 0
x_8_10_0_4 0
x_8_10_0_5 0
x_8_10_1_0 0
x_8_10_1_1 0
x_8_10_1_2 0
x_8_10_1_3 0
x_8_10_1_4 0
x_8_10_1_5 0
x_9_10_0_0 0
x_9_10_0_1 0
x_9_10_0_2 -1.3078427230084344e-13
x_9_10_0_3 -5.5511151231257827e-17
x_9_10_0_4 0
x_9_10_0_5 0
x_9_10_1_0 0
x_9_10_1_1 0
x_9_10_1_2 0
x_9_10_1_3 0
x_9_10_1_4 0
x_9_10_1_5 0
